(set-logic LIA)
(synth-fun next ((water Int) (methane Int) (pump Bool) ) Int
	((Start Int) (Var Int) (StartBool Bool))
	((Start Int (
				 5
				 (ite StartBool Start Start)))

	(Var Int (
			 1
			 2
			 19
			 31
			 58
			 589
			 water
			 methane
			 (+ Var Var)						
			 (- Var Var)						
			 (* Var Var)))

	(StartBool Bool (
				 	 pump
					(= Var Var)						
					(>= Var Var)						
					(<= Var Var)						
					(and StartBool StartBool)			
					(or  StartBool StartBool)				
					(not StartBool)))))

(constraint (= (next 71 603 true ) 5))
(constraint (= (next 69 602 true ) 5))
(constraint (= (next 63 609 true ) 5))
(constraint (= (next 30 542 true ) 5))

(check-synth)
